param n := 38;
param c := 100;
param w := 
1 98
2 98
3 93
4 89
5 88
6 79
7 78
8 75
9 75
10 74
11 73
12 72
13 70
14 69
15 60
16 56
17 52
18 44
19 44
20 42
21 38
22 35
23 34
24 33
25 23
26 22
27 21
28 18
29 12
30 11
31 10
32 9
33 9
34 9
35 8
36 6
37 4
38 3
;